c Reduced graph for DSJR500.1_0 generated by Cyril Grelier
p edge 437 3109
e 1 7
e 1 12
e 1 27
e 1 31
e 1 34
e 1 79
e 1 91
e 1 118
e 1 121
e 1 125
e 1 148
e 1 169
e 1 170
e 1 184
e 1 226
e 1 241
e 1 246
e 1 317
e 1 320
e 1 342
e 1 384
e 1 390
e 1 394
e 2 26
e 2 37
e 2 49
e 2 84
e 2 100
e 2 141
e 2 146
e 2 191
e 2 225
e 2 229
e 2 230
e 2 252
e 2 273
e 2 326
e 2 337
e 2 376
e 2 409
e 2 426
e 2 431
e 3 10
e 3 33
e 3 57
e 3 116
e 3 142
e 3 162
e 3 210
e 3 215
e 3 227
e 3 235
e 3 275
e 3 283
e 3 319
e 3 324
e 3 365
e 3 366
e 3 380
e 3 381
e 3 387
e 4 28
e 4 83
e 4 113
e 4 115
e 4 228
e 4 257
e 4 282
e 4 316
e 4 318
e 4 361
e 4 363
e 4 364
e 4 370
e 4 379
e 4 382
e 4 393
e 4 412
e 4 423
e 4 437
e 5 9
e 5 47
e 5 64
e 5 71
e 5 78
e 5 82
e 5 117
e 5 140
e 5 143
e 5 164
e 5 238
e 5 255
e 5 262
e 5 263
e 5 281
e 5 321
e 5 327
e 5 338
e 5 395
e 6 26
e 6 33
e 6 84
e 6 86
e 6 141
e 6 206
e 6 225
e 6 230
e 6 267
e 6 284
e 6 285
e 6 323
e 6 337
e 6 365
e 6 380
e 6 386
e 6 425
e 6 426
e 7 12
e 7 27
e 7 31
e 7 34
e 7 79
e 7 91
e 7 103
e 7 125
e 7 211
e 7 241
e 7 246
e 7 320
e 7 342
e 7 384
e 7 390
e 7 398
e 8 13
e 8 32
e 8 38
e 8 61
e 8 62
e 8 88
e 8 265
e 8 305
e 8 322
e 8 343
e 8 353
e 8 362
e 8 363
e 8 370
e 8 382
e 8 399
e 8 411
e 9 39
e 9 47
e 9 64
e 9 82
e 9 117
e 9 123
e 9 127
e 9 143
e 9 164
e 9 165
e 9 193
e 9 238
e 9 263
e 9 302
e 9 332
e 9 395
e 10 33
e 10 57
e 10 116
e 10 162
e 10 210
e 10 227
e 10 235
e 10 275
e 10 283
e 10 324
e 10 365
e 10 366
e 10 380
e 10 381
e 10 387
e 10 425
e 11 95
e 11 96
e 11 122
e 11 163
e 11 186
e 11 188
e 11 195
e 11 205
e 11 240
e 11 244
e 11 272
e 11 294
e 11 296
e 11 340
e 11 414
e 11 418
e 12 27
e 12 34
e 12 79
e 12 91
e 12 103
e 12 125
e 12 211
e 12 241
e 12 246
e 12 320
e 12 342
e 12 384
e 12 390
e 12 398
e 13 32
e 13 38
e 13 61
e 13 265
e 13 322
e 13 343
e 13 353
e 13 362
e 13 363
e 13 370
e 13 382
e 13 399
e 13 411
e 13 412
e 13 437
e 14 43
e 14 56
e 14 145
e 14 168
e 14 182
e 14 187
e 14 208
e 14 234
e 14 239
e 14 266
e 14 339
e 14 368
e 14 407
e 14 413
e 15 19
e 15 36
e 15 85
e 15 126
e 15 167
e 15 179
e 15 286
e 15 329
e 15 341
e 15 350
e 15 369
e 15 403
e 15 424
e 16 17
e 16 136
e 16 142
e 16 210
e 16 215
e 16 235
e 16 275
e 16 319
e 16 324
e 16 366
e 16 381
e 17 74
e 17 76
e 17 142
e 17 152
e 17 171
e 17 295
e 17 319
e 17 419
e 17 435
e 18 67
e 18 92
e 18 101
e 18 102
e 18 148
e 18 150
e 18 185
e 18 226
e 18 377
e 18 394
e 19 85
e 19 126
e 19 179
e 19 260
e 19 397
e 19 403
e 19 424
e 20 65
e 20 110
e 20 159
e 20 221
e 20 300
e 20 307
e 20 310
e 20 358
e 21 39
e 21 48
e 21 56
e 21 123
e 21 166
e 21 234
e 21 347
e 21 416
e 22 69
e 22 105
e 22 177
e 22 214
e 22 267
e 22 315
e 22 374
e 22 409
e 23 67
e 23 153
e 23 200
e 23 223
e 23 291
e 23 405
e 23 432
e 24 75
e 24 139
e 24 224
e 24 331
e 25 53
e 25 157
e 25 360
e 26 37
e 26 84
e 26 86
e 26 100
e 26 141
e 26 177
e 26 206
e 26 225
e 26 229
e 26 230
e 26 252
e 26 267
e 26 273
e 26 284
e 26 285
e 26 326
e 26 337
e 26 386
e 26 409
e 26 426
e 27 31
e 27 34
e 27 79
e 27 91
e 27 118
e 27 121
e 27 148
e 27 169
e 27 170
e 27 184
e 27 226
e 27 241
e 27 246
e 27 317
e 27 320
e 27 342
e 27 384
e 27 390
e 27 394
e 28 58
e 28 83
e 28 113
e 28 115
e 28 124
e 28 228
e 28 264
e 28 282
e 28 316
e 28 318
e 28 325
e 28 361
e 28 364
e 28 378
e 28 379
e 28 393
e 28 412
e 28 423
e 28 429
e 29 30
e 29 58
e 29 81
e 29 113
e 29 124
e 29 183
e 29 203
e 29 204
e 29 217
e 29 237
e 29 248
e 29 256
e 29 361
e 29 363
e 29 367
e 29 378
e 29 389
e 29 423
e 29 428
e 29 433
e 30 58
e 30 81
e 30 99
e 30 173
e 30 183
e 30 203
e 30 204
e 30 237
e 30 242
e 30 248
e 30 256
e 30 258
e 30 304
e 30 367
e 30 389
e 30 408
e 30 428
e 30 433
e 31 79
e 31 94
e 31 118
e 31 121
e 31 169
e 31 170
e 31 184
e 31 207
e 31 226
e 31 271
e 31 317
e 31 320
e 31 383
e 31 384
e 31 392
e 31 397
e 32 35
e 32 61
e 32 62
e 32 81
e 32 144
e 32 203
e 32 204
e 32 237
e 32 265
e 32 305
e 32 322
e 32 362
e 32 363
e 32 382
e 32 389
e 32 408
e 32 427
e 33 57
e 33 86
e 33 116
e 33 162
e 33 206
e 33 210
e 33 235
e 33 267
e 33 283
e 33 284
e 33 365
e 33 374
e 33 380
e 33 381
e 33 386
e 33 425
e 34 79
e 34 91
e 34 125
e 34 148
e 34 211
e 34 226
e 34 241
e 34 246
e 34 317
e 34 320
e 34 342
e 34 384
e 34 390
e 34 398
e 35 61
e 35 62
e 35 87
e 35 88
e 35 90
e 35 144
e 35 238
e 35 265
e 35 292
e 35 305
e 35 322
e 35 351
e 35 362
e 35 408
e 35 427
e 36 57
e 36 85
e 36 116
e 36 126
e 36 167
e 36 227
e 36 249
e 36 283
e 36 286
e 36 288
e 36 329
e 36 341
e 36 365
e 36 369
e 36 424
e 37 84
e 37 141
e 37 146
e 37 191
e 37 225
e 37 229
e 37 230
e 37 273
e 37 323
e 37 326
e 37 337
e 37 376
e 37 426
e 37 431
e 38 61
e 38 161
e 38 265
e 38 322
e 38 343
e 38 353
e 38 362
e 38 370
e 38 382
e 38 399
e 38 411
e 38 412
e 38 437
e 39 47
e 39 48
e 39 52
e 39 64
e 39 71
e 39 123
e 39 165
e 39 166
e 39 347
e 39 391
e 39 395
e 39 416
e 40 85
e 40 93
e 40 94
e 40 126
e 40 167
e 40 207
e 40 245
e 40 271
e 40 288
e 40 328
e 40 369
e 40 397
e 40 424
e 40 434
e 41 89
e 41 129
e 41 189
e 41 212
e 41 233
e 41 236
e 41 274
e 41 287
e 41 350
e 41 352
e 41 354
e 41 372
e 41 430
e 42 60
e 42 66
e 42 104
e 42 109
e 42 154
e 42 196
e 42 219
e 42 231
e 42 232
e 42 253
e 42 330
e 42 402
e 43 56
e 43 145
e 43 168
e 43 208
e 43 239
e 43 339
e 43 368
e 43 407
e 43 413
e 44 133
e 44 158
e 44 172
e 44 176
e 44 220
e 44 261
e 44 278
e 44 330
e 44 346
e 44 385
e 45 107
e 45 131
e 45 138
e 45 175
e 45 202
e 45 253
e 45 270
e 45 276
e 45 348
e 46 75
e 46 132
e 46 147
e 46 216
e 46 251
e 46 268
e 46 279
e 46 289
e 46 314
e 47 64
e 47 71
e 47 143
e 47 164
e 47 338
e 47 395
e 48 52
e 48 123
e 48 166
e 48 234
e 48 347
e 48 395
e 48 416
e 49 51
e 49 100
e 49 252
e 49 273
e 49 326
e 49 336
e 49 376
e 50 130
e 50 149
e 50 178
e 50 301
e 50 334
e 50 376
e 50 432
e 51 73
e 51 100
e 51 177
e 51 252
e 51 326
e 51 336
e 52 54
e 52 71
e 52 395
e 53 157
e 53 160
e 53 259
e 53 360
e 54 71
e 55 56
e 55 97
e 55 114
e 55 145
e 55 165
e 55 166
e 55 168
e 55 182
e 55 187
e 55 213
e 55 234
e 55 239
e 55 266
e 55 293
e 55 302
e 55 308
e 55 309
e 55 339
e 55 368
e 55 391
e 55 407
e 55 413
e 55 415
e 55 417
e 56 114
e 56 123
e 56 145
e 56 165
e 56 166
e 56 168
e 56 182
e 56 187
e 56 208
e 56 234
e 56 239
e 56 302
e 56 339
e 56 347
e 56 368
e 56 391
e 56 407
e 56 413
e 56 416
e 57 86
e 57 116
e 57 162
e 57 227
e 57 249
e 57 283
e 57 284
e 57 286
e 57 324
e 57 341
e 57 365
e 57 366
e 57 369
e 57 380
e 57 381
e 57 386
e 57 387
e 57 425
e 58 81
e 58 113
e 58 124
e 58 183
e 58 217
e 58 237
e 58 248
e 58 250
e 58 316
e 58 361
e 58 363
e 58 364
e 58 367
e 58 378
e 58 389
e 58 423
e 58 433
e 59 60
e 59 63
e 59 78
e 59 80
e 59 140
e 59 220
e 59 231
e 59 232
e 59 262
e 59 269
e 59 278
e 59 280
e 59 281
e 59 303
e 59 346
e 59 385
e 59 406
e 59 410
e 59 422
e 60 63
e 60 78
e 60 80
e 60 154
e 60 172
e 60 219
e 60 220
e 60 231
e 60 232
e 60 269
e 60 280
e 60 281
e 60 303
e 60 330
e 60 346
e 60 385
e 60 422
e 61 62
e 61 87
e 61 88
e 61 90
e 61 265
e 61 305
e 61 322
e 61 343
e 61 353
e 61 362
e 61 382
e 61 399
e 61 410
e 61 411
e 62 87
e 62 88
e 62 90
e 62 144
e 62 238
e 62 265
e 62 305
e 62 322
e 62 351
e 62 362
e 62 410
e 62 411
e 62 427
e 63 78
e 63 80
e 63 172
e 63 220
e 63 231
e 63 232
e 63 269
e 63 278
e 63 280
e 63 303
e 63 330
e 63 346
e 63 385
e 63 406
e 63 422
e 64 71
e 64 123
e 64 127
e 64 143
e 64 164
e 64 165
e 64 166
e 64 193
e 64 302
e 64 391
e 64 395
e 65 72
e 65 110
e 65 159
e 65 214
e 65 221
e 65 299
e 65 300
e 65 307
e 65 310
e 65 358
e 65 404
e 66 104
e 66 196
e 66 209
e 66 219
e 66 247
e 66 253
e 66 270
e 66 276
e 66 345
e 66 348
e 66 402
e 67 92
e 67 101
e 67 120
e 67 185
e 67 371
e 67 383
e 67 392
e 67 396
e 67 401
e 68 147
e 68 216
e 68 251
e 68 268
e 68 289
e 68 298
e 68 355
e 68 377
e 68 405
e 68 421
e 69 72
e 69 105
e 69 210
e 69 214
e 69 299
e 69 307
e 69 315
e 69 374
e 69 404
e 70 97
e 70 114
e 70 151
e 70 213
e 70 266
e 70 293
e 70 309
e 70 359
e 70 415
e 71 143
e 71 395
e 72 214
e 72 221
e 72 299
e 72 300
e 72 315
e 72 404
e 73 100
e 73 105
e 73 177
e 73 252
e 73 326
e 73 336
e 73 409
e 74 76
e 74 152
e 74 295
e 74 419
e 75 201
e 75 216
e 75 251
e 76 152
e 76 155
e 76 419
e 77 96
e 77 134
e 77 137
e 77 414
e 78 80
e 78 82
e 78 117
e 78 140
e 78 143
e 78 154
e 78 164
e 78 231
e 78 232
e 78 255
e 78 262
e 78 263
e 78 280
e 78 281
e 78 303
e 78 321
e 78 327
e 78 338
e 78 406
e 78 422
e 79 91
e 79 118
e 79 121
e 79 125
e 79 148
e 79 169
e 79 184
e 79 211
e 79 226
e 79 241
e 79 246
e 79 317
e 79 320
e 79 342
e 79 384
e 79 390
e 79 394
e 79 398
e 80 117
e 80 140
e 80 231
e 80 232
e 80 262
e 80 263
e 80 269
e 80 280
e 80 281
e 80 303
e 80 321
e 80 327
e 80 338
e 80 385
e 80 406
e 80 410
e 80 422
e 81 144
e 81 183
e 81 203
e 81 204
e 81 237
e 81 242
e 81 248
e 81 304
e 81 362
e 81 363
e 81 367
e 81 389
e 81 408
e 81 423
e 81 427
e 81 428
e 81 433
e 82 87
e 82 88
e 82 90
e 82 117
e 82 140
e 82 143
e 82 164
e 82 238
e 82 262
e 82 263
e 82 280
e 82 281
e 82 321
e 82 338
e 82 406
e 82 410
e 82 422
e 83 113
e 83 115
e 83 228
e 83 257
e 83 282
e 83 316
e 83 318
e 83 361
e 83 363
e 83 364
e 83 370
e 83 378
e 83 379
e 83 382
e 83 393
e 83 412
e 83 423
e 83 437
e 84 86
e 84 141
e 84 206
e 84 225
e 84 229
e 84 230
e 84 267
e 84 284
e 84 285
e 84 323
e 84 337
e 84 380
e 84 386
e 84 409
e 84 425
e 84 426
e 85 94
e 85 126
e 85 167
e 85 179
e 85 245
e 85 249
e 85 271
e 85 288
e 85 328
e 85 341
e 85 369
e 85 397
e 85 403
e 85 424
e 85 434
e 86 141
e 86 206
e 86 225
e 86 230
e 86 267
e 86 284
e 86 285
e 86 323
e 86 337
e 86 365
e 86 380
e 86 386
e 86 425
e 86 426
e 87 88
e 87 90
e 87 117
e 87 140
e 87 238
e 87 262
e 87 265
e 87 269
e 87 305
e 87 321
e 87 322
e 87 406
e 87 410
e 87 411
e 87 422
e 88 90
e 88 140
e 88 262
e 88 265
e 88 269
e 88 305
e 88 322
e 88 399
e 88 406
e 88 410
e 88 411
e 88 422
e 89 96
e 89 122
e 89 129
e 89 163
e 89 212
e 89 236
e 89 274
e 89 287
e 89 290
e 89 340
e 89 344
e 89 352
e 89 357
e 89 375
e 89 388
e 89 430
e 90 117
e 90 140
e 90 238
e 90 262
e 90 263
e 90 280
e 90 305
e 90 321
e 90 406
e 90 410
e 90 422
e 91 103
e 91 125
e 91 211
e 91 241
e 91 246
e 91 320
e 91 342
e 91 384
e 91 390
e 91 398
e 92 101
e 92 120
e 92 121
e 92 150
e 92 169
e 92 170
e 92 185
e 92 226
e 92 317
e 92 383
e 92 392
e 92 394
e 92 396
e 93 146
e 93 191
e 93 194
e 93 207
e 93 230
e 93 245
e 93 271
e 93 288
e 93 313
e 93 323
e 93 328
e 93 426
e 93 431
e 93 434
e 94 118
e 94 184
e 94 207
e 94 245
e 94 271
e 94 288
e 94 328
e 94 390
e 94 397
e 94 424
e 94 434
e 95 96
e 95 122
e 95 134
e 95 163
e 95 186
e 95 188
e 95 205
e 95 240
e 95 244
e 95 272
e 95 340
e 95 414
e 95 418
e 96 122
e 96 137
e 96 163
e 96 188
e 96 205
e 96 244
e 96 290
e 96 340
e 96 414
e 97 114
e 97 151
e 97 213
e 97 218
e 97 266
e 97 293
e 97 308
e 97 309
e 97 359
e 97 415
e 97 417
e 98 102
e 98 119
e 98 150
e 98 192
e 98 201
e 98 297
e 98 306
e 98 311
e 98 318
e 98 331
e 98 355
e 98 373
e 98 420
e 99 151
e 99 173
e 99 183
e 99 203
e 99 242
e 99 256
e 99 258
e 99 304
e 99 359
e 99 428
e 99 433
e 100 229
e 100 252
e 100 273
e 100 326
e 100 336
e 100 376
e 100 409
e 101 102
e 101 120
e 101 150
e 101 185
e 101 226
e 101 317
e 101 377
e 101 392
e 101 394
e 102 148
e 102 150
e 102 297
e 102 311
e 102 355
e 102 373
e 102 377
e 102 394
e 102 420
e 103 112
e 103 211
e 103 241
e 103 246
e 103 320
e 103 384
e 103 390
e 103 398
e 104 109
e 104 172
e 104 181
e 104 196
e 104 219
e 104 247
e 104 253
e 104 330
e 104 402
e 105 177
e 105 214
e 105 307
e 105 310
e 105 315
e 105 336
e 105 374
e 105 409
e 106 124
e 106 135
e 106 156
e 106 217
e 106 250
e 106 277
e 106 316
e 106 325
e 106 361
e 106 364
e 106 378
e 107 131
e 107 175
e 107 202
e 107 254
e 107 270
e 107 276
e 107 348
e 108 111
e 108 160
e 108 174
e 108 175
e 108 254
e 108 296
e 108 349
e 108 436
e 109 172
e 109 181
e 109 196
e 109 219
e 109 247
e 109 330
e 110 159
e 110 221
e 110 307
e 110 310
e 110 358
e 111 160
e 111 175
e 111 254
e 111 349
e 112 176
e 112 246
e 112 278
e 112 398
e 113 115
e 113 124
e 113 228
e 113 264
e 113 282
e 113 316
e 113 318
e 113 361
e 113 363
e 113 364
e 113 367
e 113 370
e 113 378
e 113 379
e 113 412
e 113 423
e 113 429
e 114 145
e 114 168
e 114 182
e 114 187
e 114 208
e 114 213
e 114 239
e 114 266
e 114 293
e 114 308
e 114 309
e 114 339
e 114 368
e 114 407
e 114 413
e 114 415
e 114 417
e 115 119
e 115 192
e 115 228
e 115 264
e 115 282
e 115 306
e 115 316
e 115 318
e 115 325
e 115 361
e 115 364
e 115 378
e 115 379
e 115 393
e 115 412
e 115 423
e 115 429
e 116 142
e 116 162
e 116 227
e 116 235
e 116 243
e 116 275
e 116 283
e 116 319
e 116 324
e 116 365
e 116 366
e 116 380
e 116 381
e 116 387
e 116 425
e 117 140
e 117 143
e 117 164
e 117 238
e 117 262
e 117 263
e 117 280
e 117 281
e 117 321
e 117 338
e 117 406
e 117 422
e 118 120
e 118 121
e 118 169
e 118 170
e 118 184
e 118 185
e 118 207
e 118 226
e 118 245
e 118 271
e 118 317
e 118 383
e 118 392
e 119 192
e 119 228
e 119 264
e 119 277
e 119 282
e 119 297
e 119 306
e 119 311
e 119 316
e 119 318
e 119 325
e 119 331
e 119 373
e 119 379
e 119 420
e 119 429
e 120 121
e 120 169
e 120 170
e 120 184
e 120 185
e 120 226
e 120 317
e 120 371
e 120 383
e 120 392
e 120 394
e 120 396
e 120 401
e 121 169
e 121 170
e 121 184
e 121 185
e 121 226
e 121 317
e 121 320
e 121 383
e 121 384
e 121 392
e 122 163
e 122 188
e 122 205
e 122 236
e 122 274
e 122 287
e 122 290
e 122 340
e 122 344
e 122 388
e 122 414
e 122 430
e 123 165
e 123 166
e 123 182
e 123 193
e 123 234
e 123 302
e 123 347
e 123 391
e 123 395
e 123 416
e 124 156
e 124 217
e 124 248
e 124 250
e 124 282
e 124 316
e 124 361
e 124 364
e 124 367
e 124 378
e 124 423
e 125 148
e 125 211
e 125 241
e 125 257
e 125 320
e 125 342
e 125 384
e 125 398
e 125 437
e 126 167
e 126 179
e 126 286
e 126 329
e 126 341
e 126 369
e 126 397
e 126 403
e 126 424
e 127 165
e 127 193
e 127 213
e 127 218
e 127 238
e 127 292
e 127 302
e 127 308
e 127 332
e 127 351
e 127 417
e 128 142
e 128 171
e 128 189
e 128 227
e 128 233
e 128 243
e 128 286
e 128 319
e 128 329
e 128 350
e 128 366
e 128 387
e 128 435
e 129 197
e 129 236
e 129 260
e 129 287
e 129 344
e 129 354
e 129 357
e 129 372
e 129 375
e 129 388
e 130 149
e 130 178
e 130 190
e 130 223
e 130 291
e 130 301
e 130 334
e 130 371
e 130 400
e 130 401
e 130 432
e 131 175
e 131 209
e 131 254
e 131 270
e 131 276
e 131 348
e 131 349
e 132 147
e 132 216
e 132 251
e 132 268
e 132 279
e 132 289
e 132 314
e 132 335
e 133 158
e 133 172
e 133 176
e 133 220
e 133 261
e 133 278
e 133 346
e 134 188
e 134 198
e 134 240
e 134 244
e 134 414
e 134 418
e 135 156
e 135 217
e 135 250
e 135 277
e 135 325
e 135 378
e 136 210
e 136 215
e 136 235
e 136 275
e 137 188
e 137 290
e 137 414
e 138 202
e 138 253
e 139 224
e 139 277
e 140 143
e 140 164
e 140 231
e 140 232
e 140 238
e 140 262
e 140 263
e 140 269
e 140 280
e 140 281
e 140 303
e 140 321
e 140 338
e 140 406
e 140 410
e 140 422
e 141 146
e 141 191
e 141 206
e 141 225
e 141 229
e 141 230
e 141 267
e 141 284
e 141 285
e 141 323
e 141 337
e 141 386
e 141 425
e 141 426
e 141 431
e 142 152
e 142 162
e 142 171
e 142 215
e 142 233
e 142 235
e 142 243
e 142 295
e 142 319
e 142 324
e 142 366
e 142 381
e 142 387
e 142 419
e 142 435
e 143 164
e 143 238
e 143 255
e 143 262
e 143 263
e 143 281
e 143 321
e 143 327
e 143 338
e 143 395
e 144 173
e 144 183
e 144 203
e 144 204
e 144 237
e 144 242
e 144 292
e 144 304
e 144 351
e 144 362
e 144 389
e 144 408
e 144 427
e 144 428
e 145 168
e 145 182
e 145 187
e 145 208
e 145 239
e 145 266
e 145 293
e 145 339
e 145 368
e 145 407
e 145 413
e 145 415
e 146 190
e 146 191
e 146 194
e 146 225
e 146 229
e 146 230
e 146 312
e 146 313
e 146 323
e 146 426
e 146 431
e 147 216
e 147 222
e 147 251
e 147 268
e 147 279
e 147 289
e 147 298
e 147 314
e 147 335
e 147 421
e 148 150
e 148 226
e 148 311
e 148 317
e 148 342
e 148 394
e 149 178
e 149 190
e 149 291
e 149 301
e 149 312
e 149 334
e 149 376
e 149 400
e 149 401
e 149 432
e 150 185
e 150 226
e 150 311
e 150 317
e 150 377
e 150 394
e 151 173
e 151 213
e 151 218
e 151 242
e 151 258
e 151 304
e 151 309
e 151 359
e 152 155
e 152 171
e 152 295
e 152 319
e 152 419
e 152 435
e 153 200
e 153 222
e 153 223
e 153 268
e 153 279
e 153 289
e 153 335
e 153 405
e 154 231
e 154 232
e 154 255
e 154 281
e 154 327
e 154 338
e 155 171
e 155 233
e 155 274
e 155 295
e 155 419
e 155 435
e 156 217
e 156 248
e 156 250
e 156 361
e 156 378
e 157 160
e 157 180
e 157 199
e 157 259
e 157 360
e 158 172
e 158 176
e 158 260
e 158 261
e 159 307
e 159 310
e 159 358
e 160 259
e 160 360
e 161 211
e 161 343
e 161 353
e 161 399
e 161 411
e 162 210
e 162 215
e 162 227
e 162 235
e 162 275
e 162 283
e 162 319
e 162 324
e 162 365
e 162 366
e 162 380
e 162 381
e 162 387
e 162 425
e 163 186
e 163 188
e 163 195
e 163 205
e 163 240
e 163 244
e 163 272
e 163 290
e 163 294
e 163 340
e 163 344
e 163 375
e 163 388
e 163 414
e 164 238
e 164 255
e 164 262
e 164 263
e 164 280
e 164 281
e 164 321
e 164 327
e 164 338
e 164 422
e 165 166
e 165 182
e 165 193
e 165 234
e 165 302
e 165 308
e 165 347
e 165 391
e 165 395
e 165 416
e 165 417
e 166 182
e 166 193
e 166 234
e 166 302
e 166 347
e 166 391
e 166 395
e 166 407
e 166 416
e 167 179
e 167 245
e 167 249
e 167 286
e 167 288
e 167 328
e 167 329
e 167 341
e 167 369
e 167 403
e 167 424
e 167 434
e 168 182
e 168 187
e 168 208
e 168 234
e 168 239
e 168 266
e 168 339
e 168 368
e 168 407
e 168 413
e 169 170
e 169 184
e 169 185
e 169 226
e 169 317
e 169 383
e 169 392
e 169 394
e 170 184
e 170 185
e 170 207
e 170 226
e 170 271
e 170 317
e 170 383
e 170 392
e 171 189
e 171 233
e 171 243
e 171 295
e 171 319
e 171 352
e 171 366
e 171 387
e 171 419
e 171 435
e 172 176
e 172 219
e 172 220
e 172 278
e 172 330
e 172 346
e 172 385
e 173 203
e 173 204
e 173 218
e 173 242
e 173 292
e 173 304
e 173 351
e 173 408
e 173 427
e 173 428
e 174 186
e 174 195
e 174 209
e 174 254
e 174 294
e 174 296
e 174 333
e 174 345
e 174 349
e 174 356
e 174 436
e 175 209
e 175 254
e 175 270
e 175 345
e 175 349
e 176 220
e 176 260
e 176 261
e 176 278
e 176 346
e 177 214
e 177 326
e 177 336
e 177 374
e 177 409
e 178 190
e 178 291
e 178 301
e 178 334
e 178 376
e 178 400
e 178 432
e 179 286
e 179 397
e 179 403
e 179 424
e 180 198
e 180 199
e 180 259
e 180 360
e 180 418
e 181 197
e 181 247
e 181 357
e 182 187
e 182 208
e 182 234
e 182 239
e 182 266
e 182 302
e 182 339
e 182 347
e 182 368
e 182 391
e 182 407
e 182 413
e 182 415
e 182 416
e 183 203
e 183 204
e 183 237
e 183 242
e 183 248
e 183 256
e 183 304
e 183 363
e 183 367
e 183 389
e 183 408
e 183 428
e 183 433
e 184 185
e 184 207
e 184 245
e 184 271
e 184 317
e 184 328
e 184 383
e 184 392
e 185 226
e 185 317
e 185 383
e 185 392
e 185 394
e 185 396
e 186 195
e 186 198
e 186 199
e 186 205
e 186 240
e 186 244
e 186 259
e 186 272
e 186 294
e 186 296
e 186 340
e 186 418
e 186 436
e 187 208
e 187 239
e 187 266
e 187 293
e 187 339
e 187 368
e 187 407
e 187 413
e 187 415
e 188 205
e 188 240
e 188 244
e 188 272
e 188 290
e 188 340
e 188 414
e 188 418
e 189 212
e 189 233
e 189 236
e 189 243
e 189 274
e 189 329
e 189 350
e 189 352
e 189 372
e 189 430
e 189 435
e 190 194
e 190 291
e 190 301
e 190 312
e 190 334
e 190 371
e 190 396
e 190 400
e 190 401
e 190 432
e 191 194
e 191 225
e 191 229
e 191 230
e 191 312
e 191 313
e 191 323
e 191 426
e 191 431
e 192 224
e 192 228
e 192 264
e 192 277
e 192 306
e 192 318
e 192 325
e 192 331
e 192 373
e 192 429
e 193 218
e 193 238
e 193 302
e 193 308
e 193 332
e 193 391
e 193 417
e 194 312
e 194 313
e 194 371
e 194 383
e 194 396
e 194 400
e 194 401
e 194 426
e 194 431
e 195 205
e 195 272
e 195 294
e 195 296
e 195 333
e 195 356
e 195 375
e 195 436
e 196 219
e 196 247
e 196 253
e 196 276
e 196 330
e 196 348
e 196 402
e 197 260
e 197 261
e 197 287
e 197 344
e 197 354
e 197 357
e 197 375
e 197 388
e 198 199
e 198 240
e 198 244
e 198 259
e 198 360
e 198 418
e 199 240
e 199 259
e 199 360
e 199 418
e 200 222
e 200 223
e 200 268
e 200 279
e 200 335
e 200 405
e 201 297
e 201 331
e 201 355
e 201 421
e 202 253
e 202 276
e 203 204
e 203 237
e 203 242
e 203 292
e 203 304
e 203 351
e 203 362
e 203 363
e 203 389
e 203 408
e 203 427
e 203 428
e 204 237
e 204 242
e 204 292
e 204 304
e 204 351
e 204 362
e 204 363
e 204 389
e 204 408
e 204 427
e 204 428
e 205 240
e 205 244
e 205 272
e 205 294
e 205 296
e 205 340
e 205 344
e 205 388
e 205 414
e 205 418
e 206 225
e 206 267
e 206 284
e 206 285
e 206 337
e 206 374
e 206 380
e 206 386
e 206 409
e 206 425
e 207 245
e 207 271
e 207 288
e 207 313
e 207 323
e 207 328
e 207 383
e 207 431
e 207 434
e 208 239
e 208 266
e 208 293
e 208 339
e 208 368
e 208 407
e 208 413
e 209 247
e 209 254
e 209 270
e 209 276
e 209 333
e 209 345
e 209 348
e 209 349
e 209 356
e 209 402
e 209 436
e 210 215
e 210 235
e 210 275
e 210 315
e 210 324
e 210 380
e 210 381
e 211 241
e 211 246
e 211 320
e 211 384
e 211 390
e 211 398
e 212 233
e 212 236
e 212 274
e 212 287
e 212 290
e 212 350
e 212 352
e 212 354
e 212 372
e 212 388
e 212 430
e 213 218
e 213 308
e 213 309
e 213 332
e 213 359
e 213 415
e 213 417
e 214 221
e 214 299
e 214 307
e 214 310
e 214 315
e 214 374
e 214 404
e 215 235
e 215 275
e 215 319
e 215 324
e 215 366
e 215 381
e 216 251
e 216 268
e 216 289
e 216 298
e 216 314
e 216 377
e 216 421
e 217 248
e 217 250
e 217 361
e 217 367
e 217 378
e 217 433
e 218 292
e 218 302
e 218 308
e 218 309
e 218 332
e 218 417
e 219 232
e 219 247
e 219 253
e 219 330
e 219 402
e 220 269
e 220 278
e 220 303
e 220 346
e 220 385
e 221 299
e 221 300
e 221 307
e 221 310
e 221 358
e 221 404
e 222 223
e 222 268
e 222 279
e 222 289
e 222 314
e 222 335
e 222 405
e 223 291
e 223 405
e 223 432
e 224 277
e 224 306
e 224 325
e 224 331
e 225 229
e 225 230
e 225 273
e 225 284
e 225 285
e 225 323
e 225 326
e 225 337
e 225 386
e 225 409
e 225 426
e 225 431
e 226 317
e 226 320
e 226 342
e 226 392
e 226 394
e 227 235
e 227 243
e 227 249
e 227 283
e 227 286
e 227 324
e 227 329
e 227 341
e 227 365
e 227 366
e 227 380
e 227 381
e 227 387
e 228 264
e 228 282
e 228 306
e 228 316
e 228 318
e 228 325
e 228 361
e 228 364
e 228 378
e 228 379
e 228 393
e 228 423
e 228 429
e 229 230
e 229 252
e 229 273
e 229 323
e 229 326
e 229 337
e 229 376
e 229 409
e 229 426
e 229 431
e 230 273
e 230 285
e 230 313
e 230 323
e 230 337
e 230 426
e 230 431
e 231 232
e 231 255
e 231 280
e 231 281
e 231 303
e 231 327
e 231 330
e 231 338
e 231 385
e 231 422
e 232 255
e 232 280
e 232 281
e 232 303
e 232 327
e 232 330
e 232 385
e 232 422
e 233 236
e 233 243
e 233 274
e 233 295
e 233 329
e 233 350
e 233 352
e 233 372
e 233 419
e 233 430
e 233 435
e 234 302
e 234 339
e 234 347
e 234 391
e 234 407
e 234 413
e 234 416
e 235 275
e 235 319
e 235 324
e 235 366
e 235 381
e 235 387
e 236 274
e 236 287
e 236 290
e 236 344
e 236 352
e 236 354
e 236 357
e 236 372
e 236 388
e 236 430
e 237 362
e 237 363
e 237 367
e 237 389
e 237 408
e 237 423
e 237 427
e 237 428
e 238 262
e 238 263
e 238 321
e 238 332
e 239 266
e 239 293
e 239 339
e 239 368
e 239 407
e 239 413
e 239 415
e 240 244
e 240 272
e 240 294
e 240 296
e 240 340
e 240 414
e 240 418
e 241 246
e 241 320
e 241 342
e 241 384
e 241 390
e 241 398
e 242 256
e 242 258
e 242 304
e 242 359
e 242 408
e 242 428
e 242 433
e 243 295
e 243 319
e 243 324
e 243 329
e 243 366
e 243 381
e 243 387
e 243 419
e 243 435
e 244 272
e 244 294
e 244 340
e 244 414
e 244 418
e 245 271
e 245 288
e 245 328
e 245 369
e 245 397
e 245 424
e 245 434
e 246 320
e 246 384
e 246 390
e 246 398
e 247 270
e 247 276
e 247 333
e 247 345
e 247 348
e 247 356
e 247 402
e 248 250
e 248 256
e 248 361
e 248 367
e 248 423
e 248 433
e 249 283
e 249 286
e 249 288
e 249 341
e 249 365
e 249 369
e 249 424
e 249 425
e 249 434
e 250 277
e 250 316
e 250 325
e 250 361
e 250 364
e 250 367
e 250 378
e 251 268
e 251 279
e 251 289
e 251 298
e 251 314
e 251 421
e 252 273
e 252 326
e 252 336
e 252 376
e 252 409
e 253 270
e 253 276
e 253 348
e 253 402
e 254 270
e 254 345
e 254 349
e 254 436
e 255 263
e 255 281
e 255 327
e 255 338
e 256 258
e 256 304
e 256 367
e 256 428
e 256 433
e 257 311
e 257 343
e 257 370
e 257 379
e 257 382
e 257 393
e 257 412
e 257 437
e 258 304
e 258 359
e 258 428
e 258 433
e 259 360
e 259 418
e 260 261
e 260 354
e 262 263
e 262 280
e 262 281
e 262 303
e 262 321
e 262 338
e 262 406
e 262 410
e 262 422
e 263 280
e 263 281
e 263 321
e 263 327
e 263 338
e 263 406
e 263 422
e 264 277
e 264 282
e 264 306
e 264 316
e 264 318
e 264 325
e 264 331
e 264 361
e 264 364
e 264 373
e 264 378
e 264 379
e 264 429
e 265 305
e 265 322
e 265 343
e 265 353
e 265 362
e 265 382
e 265 389
e 265 399
e 265 411
e 265 427
e 266 293
e 266 339
e 266 368
e 266 407
e 266 413
e 266 415
e 267 284
e 267 285
e 267 337
e 267 365
e 267 374
e 267 380
e 267 386
e 267 409
e 267 425
e 268 279
e 268 289
e 268 298
e 268 314
e 268 335
e 268 405
e 268 421
e 269 278
e 269 280
e 269 303
e 269 346
e 269 385
e 269 406
e 269 410
e 269 422
e 270 276
e 270 333
e 270 345
e 270 348
e 270 349
e 270 356
e 270 402
e 271 288
e 271 313
e 271 328
e 271 383
e 271 397
e 271 434
e 272 294
e 272 296
e 272 340
e 272 344
e 272 375
e 272 388
e 272 414
e 273 326
e 273 336
e 273 337
e 273 376
e 273 409
e 274 287
e 274 290
e 274 352
e 274 372
e 274 388
e 274 430
e 275 319
e 275 324
e 275 366
e 275 381
e 276 345
e 276 348
e 276 402
e 277 306
e 277 316
e 277 325
e 277 364
e 277 429
e 278 303
e 278 346
e 278 385
e 279 289
e 279 314
e 279 335
e 280 281
e 280 303
e 280 321
e 280 327
e 280 338
e 280 385
e 280 406
e 280 410
e 280 422
e 281 321
e 281 327
e 281 338
e 281 422
e 282 316
e 282 318
e 282 361
e 282 364
e 282 370
e 282 378
e 282 379
e 282 393
e 282 412
e 282 423
e 282 429
e 283 284
e 283 286
e 283 324
e 283 341
e 283 365
e 283 366
e 283 369
e 283 380
e 283 381
e 283 387
e 283 425
e 284 285
e 284 337
e 284 365
e 284 374
e 284 380
e 284 386
e 284 425
e 285 323
e 285 337
e 285 365
e 285 380
e 285 386
e 285 425
e 285 426
e 285 431
e 286 329
e 286 341
e 286 350
e 286 369
e 286 387
e 286 403
e 286 424
e 287 290
e 287 344
e 287 352
e 287 354
e 287 357
e 287 372
e 287 375
e 287 388
e 287 430
e 288 323
e 288 328
e 288 341
e 288 369
e 288 397
e 288 424
e 288 434
e 289 298
e 289 314
e 289 335
e 289 377
e 289 405
e 289 421
e 290 340
e 290 344
e 290 388
e 290 414
e 290 430
e 291 301
e 291 334
e 291 371
e 291 396
e 291 400
e 291 401
e 291 432
e 292 304
e 292 332
e 292 351
e 292 362
e 292 408
e 292 427
e 293 309
e 293 339
e 293 368
e 293 415
e 294 296
e 294 340
e 294 436
e 295 319
e 295 419
e 295 435
e 296 333
e 296 436
e 297 311
e 297 331
e 297 355
e 297 373
e 297 377
e 297 420
e 297 421
e 298 355
e 298 377
e 298 405
e 298 421
e 299 300
e 299 307
e 299 310
e 299 315
e 299 404
e 300 307
e 300 310
e 300 358
e 300 404
e 301 334
e 301 400
e 301 432
e 302 308
e 302 332
e 302 347
e 302 391
e 302 407
e 302 416
e 302 417
e 303 346
e 303 385
e 303 406
e 303 410
e 303 422
e 304 359
e 304 408
e 304 428
e 304 433
e 305 322
e 305 362
e 305 399
e 305 406
e 305 410
e 305 411
e 305 427
e 306 318
e 306 325
e 306 331
e 306 373
e 306 379
e 306 420
e 306 429
e 307 310
e 307 315
e 307 358
e 307 404
e 308 309
e 308 332
e 308 391
e 308 417
e 309 359
e 309 415
e 309 417
e 310 358
e 310 404
e 311 318
e 311 373
e 311 379
e 311 393
e 311 420
e 312 313
e 312 371
e 312 383
e 312 396
e 312 400
e 312 401
e 313 323
e 313 426
e 313 431
e 314 335
e 315 374
e 315 404
e 316 318
e 316 325
e 316 361
e 316 364
e 316 378
e 316 379
e 316 423
e 316 429
e 317 320
e 317 342
e 317 383
e 317 392
e 317 394
e 318 325
e 318 364
e 318 373
e 318 379
e 318 393
e 318 420
e 318 429
e 319 324
e 319 366
e 319 381
e 319 387
e 319 419
e 319 435
e 320 342
e 320 384
e 320 390
e 320 398
e 321 327
e 321 338
e 321 406
e 321 410
e 321 422
e 322 343
e 322 353
e 322 362
e 322 382
e 322 399
e 322 411
e 322 427
e 323 337
e 323 426
e 323 431
e 324 366
e 324 381
e 324 387
e 325 364
e 325 378
e 325 429
e 326 336
e 326 337
e 326 409
e 327 338
e 328 369
e 328 397
e 328 424
e 328 434
e 329 341
e 329 350
e 329 372
e 329 403
e 330 385
e 331 355
e 331 373
e 332 351
e 332 417
e 333 345
e 333 349
e 333 356
e 333 436
e 334 376
e 334 400
e 334 432
e 335 405
e 336 409
e 337 380
e 337 386
e 337 409
e 337 425
e 337 426
e 338 422
e 339 368
e 339 407
e 339 413
e 339 415
e 340 344
e 340 375
e 340 388
e 340 414
e 341 365
e 341 369
e 341 403
e 341 424
e 342 384
e 342 394
e 343 353
e 343 370
e 343 382
e 343 399
e 343 411
e 343 412
e 343 437
e 344 357
e 344 375
e 344 388
e 344 430
e 345 348
e 345 349
e 345 356
e 345 402
e 345 436
e 346 385
e 346 406
e 347 391
e 347 395
e 347 416
e 348 356
e 348 402
e 349 356
e 349 436
e 350 352
e 350 354
e 350 372
e 350 403
e 351 362
e 351 408
e 351 427
e 352 372
e 352 430
e 353 382
e 353 399
e 353 411
e 354 357
e 354 372
e 354 430
e 355 373
e 355 377
e 355 420
e 355 421
e 356 436
e 357 375
e 357 388
e 358 404
e 361 364
e 361 367
e 361 378
e 361 423
e 361 429
e 362 363
e 362 389
e 362 408
e 362 411
e 362 427
e 363 367
e 363 370
e 363 382
e 363 389
e 363 408
e 363 412
e 363 423
e 364 378
e 364 379
e 364 423
e 364 429
e 365 369
e 365 380
e 365 386
e 365 425
e 366 381
e 366 387
e 367 378
e 367 389
e 367 423
e 367 433
e 368 407
e 368 413
e 368 415
e 369 424
e 369 434
e 370 382
e 370 393
e 370 412
e 370 437
e 371 383
e 371 392
e 371 396
e 371 400
e 371 401
e 371 432
e 372 430
e 373 379
e 373 420
e 374 386
e 374 409
e 375 388
e 377 421
e 378 423
e 378 429
e 379 393
e 379 412
e 379 420
e 379 429
e 380 386
e 380 425
e 381 387
e 382 393
e 382 399
e 382 411
e 382 412
e 382 437
e 383 392
e 383 396
e 384 390
e 384 398
e 385 406
e 385 422
e 386 425
e 388 430
e 389 408
e 389 427
e 389 428
e 390 397
e 390 398
e 391 407
e 391 416
e 391 417
e 392 396
e 393 412
e 393 420
e 393 437
e 395 416
e 396 400
e 396 401
e 396 432
e 397 424
e 397 434
e 399 411
e 400 401
e 400 432
e 401 432
e 403 424
e 406 410
e 406 422
e 407 413
e 407 416
e 408 427
e 408 428
e 410 411
e 410 422
e 412 423
e 412 437
e 415 417
e 419 435
e 424 434
e 426 431
e 428 433
